* ENCODING=ISO-8859-1
NAME          CPLEX
ROWS
 N  obj1    
 G  c1      
 G  c2      
 G  c3      
 G  c4      
 G  c5      
 G  c6      
 G  c7      
 G  c8      
 G  c9      
 G  c10     
 G  c11     
 G  c12     
 G  c13     
 G  c14     
 G  c15     
 G  c16     
 G  c17     
 G  c18     
 G  c19     
 G  c20     
 G  c21     
 G  c22     
 G  c23     
 G  c24     
 G  c25     
 G  c26     
 G  c27     
 G  c28     
 G  c29     
 G  c30     
 G  c31     
 G  c32     
 G  c33     
 G  c34     
 G  c35     
 G  c36     
 G  c37     
 G  c38     
 G  c39     
 G  c40     
 G  c41     
 G  c42     
 G  c43     
 G  c44     
 G  c45     
 G  c46     
 G  c47     
 G  c48     
 G  c49     
 G  c50     
 G  c51     
 G  c52     
 G  c53     
 G  c54     
 G  c55     
 G  c56     
 G  c57     
 G  c58     
 G  c59     
 G  c60     
 G  c61     
 G  c62     
 G  c63     
 G  c64     
 G  c65     
 G  c66     
 G  c67     
 G  c68     
 G  c69     
 G  c70     
COLUMNS
    MARK0000  'MARKER'                 'INTORG'
    x1        obj1                            1
    x1        c11                           932
    x1        c23                           455
    x1        c29                           571
    x1        c40                           811
    x1        c54                           280
    x1        c59                           675
    x1        c64                           603
    x1        c67                           370
    x2        obj1                            1
    x2        c4                            211
    x2        c18                           389
    x2        c36                           134
    x2        c48                           844
    x2        c68                           359
    x3        obj1                            1
    x3        c4                            389
    x3        c7                            345
    x3        c11                           406
    x3        c12                           713
    x3        c19                           157
    x3        c31                           645
    x3        c53                           923
    x3        c55                           960
    x3        c58                           434
    x3        c69                           250
    x4        obj1                            1
    x4        c2                            186
    x4        c6                            865
    x4        c7                            970
    x4        c17                           513
    x4        c18                           306
    x4        c27                           315
    x4        c47                           257
    x5        obj1                            1
    x5        c5                            747
    x5        c22                           859
    x5        c25                           433
    x5        c30                           735
    x5        c41                           605
    x5        c49                           723
    x5        c60                           756
    x6        obj1                            1
    x6        c3                            255
    x6        c15                           133
    x6        c26                           898
    x6        c37                           824
    x6        c39                           605
    x6        c43                           450
    x6        c52                           668
    x6        c60                           484
    x7        obj1                            1
    x7        c4                            337
    x7        c6                           1000
    x7        c14                           595
    x7        c15                           137
    x7        c21                           273
    x7        c27                           690
    x7        c31                           826
    x7        c33                           344
    x7        c36                           541
    x7        c46                           654
    x7        c59                           644
    x7        c64                           688
    x8        obj1                            1
    x8        c17                           270
    x8        c22                           600
    x8        c29                           849
    x8        c37                           596
    x8        c40                           985
    x8        c68                           453
    x8        c70                           778
    x9        obj1                            1
    x9        c4                            600
    x9        c7                            439
    x9        c17                           143
    x9        c23                           282
    x9        c31                           421
    x9        c37                           282
    x9        c40                           732
    x9        c66                           139
    x10       obj1                            1
    x10       c2                            115
    x10       c6                            783
    x10       c11                           489
    x10       c20                           615
    x10       c26                           854
    x10       c33                           608
    x10       c47                           975
    x10       c51                           412
    x10       c56                           824
    x10       c62                           579
    x10       c63                           648
    x11       obj1                            1
    x11       c17                           534
    x11       c21                           934
    x11       c26                           895
    x11       c27                           860
    x11       c37                           771
    x11       c49                           217
    x11       c53                           826
    x11       c63                           501
    x12       obj1                            1
    x12       c6                            423
    x12       c12                           628
    x12       c15                           445
    x12       c21                           697
    x12       c31                           622
    x12       c42                           639
    x12       c46                           333
    x12       c58                           776
    x12       c66                           652
    x13       obj1                            1
    x13       c19                           656
    x13       c27                           767
    x13       c40                           828
    x13       c41                           332
    x13       c53                           309
    x13       c57                           836
    x13       c65                           856
    x13       c70                           366
    x14       obj1                            1
    x14       c1                            567
    x14       c9                            541
    x14       c12                           385
    x14       c13                           617
    x14       c41                           624
    x14       c47                           226
    x14       c48                           281
    x14       c62                           970
    x14       c66                           270
    x15       obj1                            1
    x15       c42                           953
    x15       c53                           830
    x15       c63                           247
    x16       obj1                            1
    x16       c1                            392
    x16       c18                           365
    x16       c32                           853
    x16       c36                           293
    x16       c39                           441
    x16       c51                           451
    x16       c54                           563
    x17       obj1                            1
    x17       c13                           585
    x17       c49                           592
    x17       c54                           772
    x18       obj1                            1
    x18       c5                            304
    x18       c16                           612
    x18       c20                           650
    x18       c50                           871
    x18       c59                           273
    x18       c64                           224
    x18       c66                           683
    x19       obj1                            1
    x19       c4                            382
    x19       c19                           640
    x19       c20                           641
    x19       c23                           902
    x19       c28                           624
    x19       c30                           874
    x19       c33                           449
    x19       c45                           499
    x19       c53                           979
    x19       c56                           227
    x19       c68                          1000
    x20       obj1                            1
    x20       c7                            213
    x20       c15                           854
    x20       c16                           705
    x20       c35                           686
    x20       c40                           921
    x20       c45                           565
    x21       obj1                            1
    x21       c5                            909
    x21       c14                           789
    x21       c61                           320
    x22       obj1                            1
    x22       c3                            972
    x22       c10                           629
    x22       c17                           259
    x22       c23                           935
    x22       c26                           548
    x22       c34                           547
    x22       c36                           479
    x22       c38                           126
    x22       c44                           736
    x22       c66                           747
    x23       obj1                            1
    x23       c2                            669
    x23       c4                            342
    x23       c11                           712
    x23       c24                           228
    x23       c40                           270
    x23       c42                           423
    x23       c48                           983
    x23       c49                           319
    x23       c56                           947
    x23       c68                           886
    x24       obj1                            1
    x24       c21                           256
    x24       c34                           670
    x24       c35                           511
    x24       c46                           567
    x24       c60                           508
    x25       obj1                            1
    x25       c18                           806
    x25       c23                           707
    x25       c25                           257
    x25       c30                           201
    x25       c40                           508
    x25       c47                           857
    x25       c49                           313
    x25       c69                           910
    x26       obj1                            1
    x26       c14                           469
    x26       c25                           597
    x26       c47                           710
    x26       c58                           287
    x26       c63                           391
    x26       c67                           908
    x27       obj1                            1
    x27       c1                            881
    x27       c11                           108
    x27       c21                           233
    x27       c26                           996
    x27       c28                           956
    x27       c41                           196
    x27       c42                           535
    x28       obj1                            1
    x28       c1                            974
    x28       c2                            624
    x28       c6                            984
    x28       c14                           649
    x28       c27                           300
    x28       c34                           133
    x28       c39                           478
    x28       c42                           204
    x28       c43                           948
    x28       c54                           801
    x28       c55                           332
    x28       c61                           412
    x29       obj1                            1
    x29       c4                            844
    x29       c13                           730
    x29       c23                           644
    x29       c31                           935
    x29       c58                           490
    x30       obj1                            1
    x30       c2                            442
    x30       c5                            244
    x30       c9                            844
    x30       c36                           983
    x30       c39                           251
    x30       c42                           464
    x30       c45                           797
    x30       c59                           240
    x30       c60                           361
    x30       c61                           908
    x31       obj1                            1
    x31       c6                            326
    x31       c11                           145
    x31       c12                           348
    x31       c20                           257
    x31       c21                           792
    x31       c56                           309
    x32       obj1                            1
    x32       c6                            967
    x32       c14                           942
    x32       c17                           438
    x32       c35                           446
    x33       obj1                            1
    x33       c26                           577
    x33       c37                           308
    x33       c46                           900
    x33       c50                           505
    x33       c51                           994
    x33       c52                           521
    x33       c66                           965
    x33       c68                           595
    x33       c69                           589
    x34       obj1                            1
    x34       c15                           953
    x34       c28                           326
    x34       c38                           471
    x34       c40                           694
    x34       c58                           212
    x35       obj1                            1
    x35       c5                            844
    x35       c31                           834
    x35       c40                           377
    x35       c41                           526
    x35       c46                           769
    x36       obj1                            1
    x36       c18                           274
    x36       c21                           703
    x36       c55                           310
    x36       c64                           929
    x37       obj1                            1
    x37       c26                           363
    x37       c55                           427
    x37       c67                           714
    x38       obj1                            1
    x38       c2                            273
    x38       c12                           501
    x38       c35                           619
    x38       c39                           220
    x38       c52                           788
    x38       c66                           518
    x38       c67                           401
    x39       obj1                            1
    x39       c14                           363
    x39       c15                           846
    x39       c26                           141
    x39       c45                           506
    x39       c59                           118
    x39       c67                           625
    x40       obj1                            1
    x40       c32                           972
    x40       c48                           980
    x40       c56                           129
    x41       obj1                            1
    x41       c6                            375
    x41       c17                           307
    x41       c21                           564
    x41       c30                           175
    x41       c47                           259
    x41       c49                           179
    x41       c60                           647
    x42       obj1                            1
    x42       c2                            716
    x42       c24                           491
    x42       c25                           840
    x42       c29                           127
    x42       c55                           862
    x42       c61                           825
    x43       obj1                            1
    x43       c12                           299
    x43       c30                           867
    x43       c37                           928
    x43       c53                           109
    x43       c55                           534
    x44       obj1                            1
    x44       c3                            780
    x44       c5                            781
    x44       c10                           835
    x44       c12                           575
    x44       c35                           729
    x44       c38                           911
    x44       c57                           819
    x44       c65                           719
    x45       obj1                            1
    x45       c6                            880
    x45       c13                           549
    x45       c14                           868
    x45       c17                           295
    x45       c20                           681
    x45       c38                           808
    x45       c41                           605
    x45       c46                           450
    x45       c50                           280
    x46       obj1                            1
    x46       c1                            849
    x46       c3                            524
    x46       c5                            302
    x46       c15                           280
    x46       c35                           382
    x46       c39                           314
    x46       c42                           551
    x46       c49                           972
    x46       c54                           477
    x47       obj1                            1
    x47       c20                           956
    x47       c30                           964
    x47       c36                           750
    x47       c41                           205
    x47       c47                           598
    x47       c48                           811
    x47       c55                           407
    x47       c57                           591
    x47       c59                           910
    x47       c70                           384
    x48       obj1                            1
    x48       c21                           420
    x48       c37                           826
    x48       c46                           144
    x48       c51                           961
    x49       obj1                            1
    x49       c18                           327
    x49       c30                           262
    x49       c53                           305
    x49       c64                           206
    x50       obj1                            1
    x50       c7                            659
    x50       c25                           551
    x50       c41                           886
    x50       c42                           450
    x50       c51                           788
    x50       c56                           555
    x50       c61                           975
    x51       obj1                            1
    x51       c2                            746
    x51       c7                            675
    x51       c19                           776
    x51       c21                           153
    x51       c24                           896
    x51       c30                           761
    x51       c33                           297
    x51       c34                           122
    x51       c37                           484
    x51       c38                           986
    x51       c46                           602
    x51       c68                           646
    x52       obj1                            1
    x52       c9                            434
    x52       c20                           912
    x52       c23                           506
    x52       c39                           732
    x52       c54                           135
    x52       c68                           585
    x53       obj1                            1
    x53       c14                           856
    x53       c17                           950
    x53       c37                           400
    x53       c59                           677
    x53       c64                           347
    x53       c65                           886
    x54       obj1                            1
    x54       c8                            683
    x54       c11                           427
    x54       c15                           498
    x54       c20                           553
    x54       c41                           680
    x54       c42                           234
    x54       c44                           271
    x55       obj1                            1
    x55       c2                            938
    x55       c20                           497
    x55       c53                           426
    x55       c54                           617
    x55       c59                           283
    x55       c70                           878
    x56       obj1                            1
    x56       c3                            647
    x56       c11                           377
    x56       c27                           754
    x56       c31                           302
    x56       c53                           110
    x57       obj1                            1
    x57       c8                            253
    x57       c13                           694
    x57       c58                           140
    x58       obj1                            1
    x58       c5                            953
    x58       c9                            690
    x58       c12                           632
    x58       c15                           795
    x58       c20                           634
    x58       c26                           570
    x58       c40                           983
    x58       c50                           562
    x58       c55                           818
    x58       c69                           361
    x59       obj1                            1
    x59       c7                            216
    x59       c33                           286
    x59       c44                           783
    x59       c54                           715
    x59       c55                           500
    x59       c60                           987
    x59       c67                           800
    x60       obj1                            1
    x60       c1                            477
    x60       c8                            389
    x60       c19                           559
    x60       c24                           326
    x60       c31                           580
    x60       c46                           220
    x61       obj1                            1
    x61       c8                            562
    x61       c9                            909
    x61       c16                           777
    x61       c22                           754
    x61       c32                           776
    x61       c58                           295
    x61       c59                           613
    x61       c70                           594
    x62       obj1                            1
    x62       c9                            343
    x62       c12                           615
    x62       c16                           169
    x62       c17                           405
    x62       c31                           401
    x62       c35                           923
    x62       c55                           839
    x63       obj1                            1
    x63       c29                           735
    x63       c32                           561
    x63       c38                           671
    x63       c64                           692
    x64       obj1                            1
    x64       c10                           947
    x64       c22                           755
    x64       c28                           822
    x64       c44                           499
    x64       c45                           620
    x64       c53                           295
    x64       c57                           350
    x64       c58                           424
    x64       c60                           263
    x64       c62                           220
    x64       c65                           346
    x65       obj1                            1
    x65       c3                            954
    x65       c13                           558
    x65       c25                           463
    x65       c35                           401
    x65       c39                           880
    x65       c41                           757
    x65       c51                           570
    x65       c60                           332
    x65       c62                           546
    x65       c66                           503
    x66       obj1                            1
    x66       c2                            760
    x66       c25                           460
    x66       c46                           255
    x66       c59                           189
    x66       c64                           339
    x67       obj1                            1
    x67       c6                            591
    x67       c9                            446
    x67       c10                           513
    x67       c12                           764
    x67       c44                           572
    x67       c61                           315
    x67       c64                           484
    x67       c67                           784
    x68       obj1                            1
    x68       c1                            936
    x68       c7                            841
    x68       c15                           778
    x68       c27                           828
    x68       c33                           645
    x68       c34                           694
    x68       c39                           662
    x68       c43                           664
    x68       c68                           237
    x68       c69                           283
    x69       obj1                            1
    x69       c29                           979
    x69       c30                           759
    x69       c33                           497
    x69       c43                           173
    x69       c45                           976
    x69       c52                           156
    x70       obj1                            1
    x70       c3                            186
    x70       c18                           549
    x70       c26                           853
    x70       c29                           243
    x70       c31                           478
    x70       c38                           808
    x70       c51                           403
    MARK0001  'MARKER'                 'INTEND'
RHS
    rhs       c1                           2538
    rhs       c2                           2735
    rhs       c3                           2159
    rhs       c4                           1553
    rhs       c5                           2542
    rhs       c6                           3597
    rhs       c7                           2179
    rhs       c8                            944
    rhs       c9                           2104
    rhs       c10                          1462
    rhs       c11                          1798
    rhs       c12                          2730
    rhs       c13                          1867
    rhs       c14                          2766
    rhs       c15                          2860
    rhs       c16                          1132
    rhs       c17                          2057
    rhs       c18                          1508
    rhs       c19                          1394
    rhs       c20                          3198
    rhs       c21                          2513
    rhs       c22                          1484
    rhs       c23                          2216
    rhs       c24                           971
    rhs       c25                          1801
    rhs       c26                          3348
    rhs       c27                          2257
    rhs       c28                          1364
    rhs       c29                          1752
    rhs       c30                          2799
    rhs       c31                          3022
    rhs       c32                          1581
    rhs       c33                          1563
    rhs       c34                          1083
    rhs       c35                          2349
    rhs       c36                          1590
    rhs       c37                          2710
    rhs       c38                          2391
    rhs       c39                          2292
    rhs       c40                          3555
    rhs       c41                          2708
    rhs       c42                          2227
    rhs       c43                          1118
    rhs       c44                          1431
    rhs       c45                          1982
    rhs       c46                          2447
    rhs       c47                          1941
    rhs       c48                          1950
    rhs       c49                          1658
    rhs       c50                          1109
    rhs       c51                          2290
    rhs       c52                          1067
    rhs       c53                          2556
    rhs       c54                          2180
    rhs       c55                          2995
    rhs       c56                          1496
    rhs       c57                          1298
    rhs       c58                          1529
    rhs       c59                          2311
    rhs       c60                          2169
    rhs       c61                          1878
    rhs       c62                          1158
    rhs       c63                           894
    rhs       c64                          2256
    rhs       c65                          1404
    rhs       c66                          2239
    rhs       c67                          2301
    rhs       c68                          2381
    rhs       c69                          1197
    rhs       c70                          1500
BOUNDS
 LI bnd       x1        0
 LI bnd       x2        0
 LI bnd       x3        0
 LI bnd       x4        0
 LI bnd       x5        0
 LI bnd       x6        0
 LI bnd       x7        0
 LI bnd       x8        0
 LI bnd       x9        0
 LI bnd       x10       0
 LI bnd       x11       0
 LI bnd       x12       0
 LI bnd       x13       0
 LI bnd       x14       0
 LI bnd       x15       0
 LI bnd       x16       0
 LI bnd       x17       0
 LI bnd       x18       0
 LI bnd       x19       0
 LI bnd       x20       0
 LI bnd       x21       0
 LI bnd       x22       0
 LI bnd       x23       0
 LI bnd       x24       0
 LI bnd       x25       0
 LI bnd       x26       0
 LI bnd       x27       0
 LI bnd       x28       0
 LI bnd       x29       0
 LI bnd       x30       0
 LI bnd       x31       0
 LI bnd       x32       0
 LI bnd       x33       0
 LI bnd       x34       0
 LI bnd       x35       0
 LI bnd       x36       0
 LI bnd       x37       0
 LI bnd       x38       0
 LI bnd       x39       0
 LI bnd       x40       0
 LI bnd       x41       0
 LI bnd       x42       0
 LI bnd       x43       0
 LI bnd       x44       0
 LI bnd       x45       0
 LI bnd       x46       0
 LI bnd       x47       0
 LI bnd       x48       0
 LI bnd       x49       0
 LI bnd       x50       0
 LI bnd       x51       0
 LI bnd       x52       0
 LI bnd       x53       0
 LI bnd       x54       0
 LI bnd       x55       0
 LI bnd       x56       0
 LI bnd       x57       0
 LI bnd       x58       0
 LI bnd       x59       0
 LI bnd       x60       0
 LI bnd       x61       0
 LI bnd       x62       0
 LI bnd       x63       0
 LI bnd       x64       0
 LI bnd       x65       0
 LI bnd       x66       0
 LI bnd       x67       0
 LI bnd       x68       0
 LI bnd       x69       0
 LI bnd       x70       0
ENDATA
